Route #1: 1 3 29 63 23 29 22 48 49 31 1 
Route #2: 1 35 47 14 9 54 20 54 8 1 
Route #3: 1 68 1 
Route #4: 1 18 33 51 10 40 59 40 13 27 1 
Route #5: 1 52 64 24 57 42 43 2 1 
Route #6: 1 30 6 38 37 70 62 29 69 1 
Route #7: 1 2 44 64 50 64 34 1 
Route #8: 1 7 64 17 4 45 33 26 33 1 
Route #9: 1 5 46 6 16 58 14 55 14 28 53 1 
Route #10: 1 41 40 11 39 66 12 15 54 36 1 
Cost 834.0
